p cnf 32 791
1 2 3 4 0 
-1 -2 0 
-1 -3 0 
-1 -4 0 
-2 -3 0 
-2 -4 0 
-3 -4 0 
5 6 7 8 0 
-5 -6 0 
-5 -7 0 
-5 -8 0 
-6 -7 0 
-6 -8 0 
-7 -8 0 
9 10 11 12 0 
-9 -10 0 
-9 -11 0 
-9 -12 0 
-10 -11 0 
-10 -12 0 
-11 -12 0 
13 14 15 16 0 
-13 -14 0 
-13 -15 0 
-13 -16 0 
-14 -15 0 
-14 -16 0 
-15 -16 0 
17 18 19 20 0 
-17 -18 0 
-17 -19 0 
-17 -20 0 
-18 -19 0 
-18 -20 0 
-19 -20 0 
21 22 23 24 0 
-21 -22 0 
-21 -23 0 
-21 -24 0 
-22 -23 0 
-22 -24 0 
-23 -24 0 
25 26 27 28 0 
-25 -26 0 
-25 -27 0 
-25 -28 0 
-26 -27 0 
-26 -28 0 
-27 -28 0 
29 30 31 32 0 
-29 -30 0 
-29 -31 0 
-29 -32 0 
-30 -31 0 
-30 -32 0 
-31 -32 0 
-1 -5 -9 0 
-1 -5 -13 0 
-1 -5 -17 0 
-1 -5 -21 0 
-1 -5 -25 0 
-1 -5 -29 0 
-1 -9 -5 0 
-1 -9 -13 0 
-1 -9 -17 0 
-1 -9 -21 0 
-1 -9 -25 0 
-1 -9 -29 0 
-1 -13 -5 0 
-1 -13 -9 0 
-1 -13 -17 0 
-1 -13 -21 0 
-1 -13 -25 0 
-1 -13 -29 0 
-1 -17 -5 0 
-1 -17 -9 0 
-1 -17 -13 0 
-1 -17 -21 0 
-1 -17 -25 0 
-1 -17 -29 0 
-1 -21 -5 0 
-1 -21 -9 0 
-1 -21 -13 0 
-1 -21 -17 0 
-1 -21 -25 0 
-1 -21 -29 0 
-1 -25 -5 0 
-1 -25 -9 0 
-1 -25 -13 0 
-1 -25 -17 0 
-1 -25 -21 0 
-1 -25 -29 0 
-1 -29 -5 0 
-1 -29 -9 0 
-1 -29 -13 0 
-1 -29 -17 0 
-1 -29 -21 0 
-1 -29 -25 0 
-5 -9 -1 0 
-5 -9 -13 0 
-5 -9 -17 0 
-5 -9 -21 0 
-5 -9 -25 0 
-5 -9 -29 0 
-5 -13 -1 0 
-5 -13 -9 0 
-5 -13 -17 0 
-5 -13 -21 0 
-5 -13 -25 0 
-5 -13 -29 0 
-5 -17 -1 0 
-5 -17 -9 0 
-5 -17 -13 0 
-5 -17 -21 0 
-5 -17 -25 0 
-5 -17 -29 0 
-5 -21 -1 0 
-5 -21 -9 0 
-5 -21 -13 0 
-5 -21 -17 0 
-5 -21 -25 0 
-5 -21 -29 0 
-5 -25 -1 0 
-5 -25 -9 0 
-5 -25 -13 0 
-5 -25 -17 0 
-5 -25 -21 0 
-5 -25 -29 0 
-5 -29 -1 0 
-5 -29 -9 0 
-5 -29 -13 0 
-5 -29 -17 0 
-5 -29 -21 0 
-5 -29 -25 0 
-9 -13 -1 0 
-9 -13 -5 0 
-9 -13 -17 0 
-9 -13 -21 0 
-9 -13 -25 0 
-9 -13 -29 0 
-9 -17 -1 0 
-9 -17 -5 0 
-9 -17 -13 0 
-9 -17 -21 0 
-9 -17 -25 0 
-9 -17 -29 0 
-9 -21 -1 0 
-9 -21 -5 0 
-9 -21 -13 0 
-9 -21 -17 0 
-9 -21 -25 0 
-9 -21 -29 0 
-9 -25 -1 0 
-9 -25 -5 0 
-9 -25 -13 0 
-9 -25 -17 0 
-9 -25 -21 0 
-9 -25 -29 0 
-9 -29 -1 0 
-9 -29 -5 0 
-9 -29 -13 0 
-9 -29 -17 0 
-9 -29 -21 0 
-9 -29 -25 0 
-13 -17 -1 0 
-13 -17 -5 0 
-13 -17 -9 0 
-13 -17 -21 0 
-13 -17 -25 0 
-13 -17 -29 0 
-13 -21 -1 0 
-13 -21 -5 0 
-13 -21 -9 0 
-13 -21 -17 0 
-13 -21 -25 0 
-13 -21 -29 0 
-13 -25 -1 0 
-13 -25 -5 0 
-13 -25 -9 0 
-13 -25 -17 0 
-13 -25 -21 0 
-13 -25 -29 0 
-13 -29 -1 0 
-13 -29 -5 0 
-13 -29 -9 0 
-13 -29 -17 0 
-13 -29 -21 0 
-13 -29 -25 0 
-17 -21 -1 0 
-17 -21 -5 0 
-17 -21 -9 0 
-17 -21 -13 0 
-17 -21 -25 0 
-17 -21 -29 0 
-17 -25 -1 0 
-17 -25 -5 0 
-17 -25 -9 0 
-17 -25 -13 0 
-17 -25 -21 0 
-17 -25 -29 0 
-17 -29 -1 0 
-17 -29 -5 0 
-17 -29 -9 0 
-17 -29 -13 0 
-17 -29 -21 0 
-17 -29 -25 0 
-21 -25 -1 0 
-21 -25 -5 0 
-21 -25 -9 0 
-21 -25 -13 0 
-21 -25 -17 0 
-21 -25 -29 0 
-21 -29 -1 0 
-21 -29 -5 0 
-21 -29 -9 0 
-21 -29 -13 0 
-21 -29 -17 0 
-21 -29 -25 0 
-25 -29 -1 0 
-25 -29 -5 0 
-25 -29 -9 0 
-25 -29 -13 0 
-25 -29 -17 0 
-25 -29 -21 0 
6 10 14 18 22 26 30 0 
2 10 14 18 22 26 30 0 
2 6 14 18 22 26 30 0 
2 6 10 18 22 26 30 0 
2 6 10 14 22 26 30 0 
2 6 10 14 18 26 30 0 
2 6 10 14 18 22 30 0 
2 6 10 14 18 22 26 0 
-2 -6 -10 0 
-2 -6 -14 0 
-2 -6 -18 0 
-2 -6 -22 0 
-2 -6 -26 0 
-2 -6 -30 0 
-2 -10 -6 0 
-2 -10 -14 0 
-2 -10 -18 0 
-2 -10 -22 0 
-2 -10 -26 0 
-2 -10 -30 0 
-2 -14 -6 0 
-2 -14 -10 0 
-2 -14 -18 0 
-2 -14 -22 0 
-2 -14 -26 0 
-2 -14 -30 0 
-2 -18 -6 0 
-2 -18 -10 0 
-2 -18 -14 0 
-2 -18 -22 0 
-2 -18 -26 0 
-2 -18 -30 0 
-2 -22 -6 0 
-2 -22 -10 0 
-2 -22 -14 0 
-2 -22 -18 0 
-2 -22 -26 0 
-2 -22 -30 0 
-2 -26 -6 0 
-2 -26 -10 0 
-2 -26 -14 0 
-2 -26 -18 0 
-2 -26 -22 0 
-2 -26 -30 0 
-2 -30 -6 0 
-2 -30 -10 0 
-2 -30 -14 0 
-2 -30 -18 0 
-2 -30 -22 0 
-2 -30 -26 0 
-6 -10 -2 0 
-6 -10 -14 0 
-6 -10 -18 0 
-6 -10 -22 0 
-6 -10 -26 0 
-6 -10 -30 0 
-6 -14 -2 0 
-6 -14 -10 0 
-6 -14 -18 0 
-6 -14 -22 0 
-6 -14 -26 0 
-6 -14 -30 0 
-6 -18 -2 0 
-6 -18 -10 0 
-6 -18 -14 0 
-6 -18 -22 0 
-6 -18 -26 0 
-6 -18 -30 0 
-6 -22 -2 0 
-6 -22 -10 0 
-6 -22 -14 0 
-6 -22 -18 0 
-6 -22 -26 0 
-6 -22 -30 0 
-6 -26 -2 0 
-6 -26 -10 0 
-6 -26 -14 0 
-6 -26 -18 0 
-6 -26 -22 0 
-6 -26 -30 0 
-6 -30 -2 0 
-6 -30 -10 0 
-6 -30 -14 0 
-6 -30 -18 0 
-6 -30 -22 0 
-6 -30 -26 0 
-10 -14 -2 0 
-10 -14 -6 0 
-10 -14 -18 0 
-10 -14 -22 0 
-10 -14 -26 0 
-10 -14 -30 0 
-10 -18 -2 0 
-10 -18 -6 0 
-10 -18 -14 0 
-10 -18 -22 0 
-10 -18 -26 0 
-10 -18 -30 0 
-10 -22 -2 0 
-10 -22 -6 0 
-10 -22 -14 0 
-10 -22 -18 0 
-10 -22 -26 0 
-10 -22 -30 0 
-10 -26 -2 0 
-10 -26 -6 0 
-10 -26 -14 0 
-10 -26 -18 0 
-10 -26 -22 0 
-10 -26 -30 0 
-10 -30 -2 0 
-10 -30 -6 0 
-10 -30 -14 0 
-10 -30 -18 0 
-10 -30 -22 0 
-10 -30 -26 0 
-14 -18 -2 0 
-14 -18 -6 0 
-14 -18 -10 0 
-14 -18 -22 0 
-14 -18 -26 0 
-14 -18 -30 0 
-14 -22 -2 0 
-14 -22 -6 0 
-14 -22 -10 0 
-14 -22 -18 0 
-14 -22 -26 0 
-14 -22 -30 0 
-14 -26 -2 0 
-14 -26 -6 0 
-14 -26 -10 0 
-14 -26 -18 0 
-14 -26 -22 0 
-14 -26 -30 0 
-14 -30 -2 0 
-14 -30 -6 0 
-14 -30 -10 0 
-14 -30 -18 0 
-14 -30 -22 0 
-14 -30 -26 0 
-18 -22 -2 0 
-18 -22 -6 0 
-18 -22 -10 0 
-18 -22 -14 0 
-18 -22 -26 0 
-18 -22 -30 0 
-18 -26 -2 0 
-18 -26 -6 0 
-18 -26 -10 0 
-18 -26 -14 0 
-18 -26 -22 0 
-18 -26 -30 0 
-18 -30 -2 0 
-18 -30 -6 0 
-18 -30 -10 0 
-18 -30 -14 0 
-18 -30 -22 0 
-18 -30 -26 0 
-22 -26 -2 0 
-22 -26 -6 0 
-22 -26 -10 0 
-22 -26 -14 0 
-22 -26 -18 0 
-22 -26 -30 0 
-22 -30 -2 0 
-22 -30 -6 0 
-22 -30 -10 0 
-22 -30 -14 0 
-22 -30 -18 0 
-22 -30 -26 0 
-26 -30 -2 0 
-26 -30 -6 0 
-26 -30 -10 0 
-26 -30 -14 0 
-26 -30 -18 0 
-26 -30 -22 0 
7 11 15 19 23 27 31 0 
3 11 15 19 23 27 31 0 
3 7 15 19 23 27 31 0 
3 7 11 19 23 27 31 0 
3 7 11 15 23 27 31 0 
3 7 11 15 19 27 31 0 
3 7 11 15 19 23 31 0 
3 7 11 15 19 23 27 0 
-3 -7 -11 0 
-3 -7 -15 0 
-3 -7 -19 0 
-3 -7 -23 0 
-3 -7 -27 0 
-3 -7 -31 0 
-3 -11 -7 0 
-3 -11 -15 0 
-3 -11 -19 0 
-3 -11 -23 0 
-3 -11 -27 0 
-3 -11 -31 0 
-3 -15 -7 0 
-3 -15 -11 0 
-3 -15 -19 0 
-3 -15 -23 0 
-3 -15 -27 0 
-3 -15 -31 0 
-3 -19 -7 0 
-3 -19 -11 0 
-3 -19 -15 0 
-3 -19 -23 0 
-3 -19 -27 0 
-3 -19 -31 0 
-3 -23 -7 0 
-3 -23 -11 0 
-3 -23 -15 0 
-3 -23 -19 0 
-3 -23 -27 0 
-3 -23 -31 0 
-3 -27 -7 0 
-3 -27 -11 0 
-3 -27 -15 0 
-3 -27 -19 0 
-3 -27 -23 0 
-3 -27 -31 0 
-3 -31 -7 0 
-3 -31 -11 0 
-3 -31 -15 0 
-3 -31 -19 0 
-3 -31 -23 0 
-3 -31 -27 0 
-7 -11 -3 0 
-7 -11 -15 0 
-7 -11 -19 0 
-7 -11 -23 0 
-7 -11 -27 0 
-7 -11 -31 0 
-7 -15 -3 0 
-7 -15 -11 0 
-7 -15 -19 0 
-7 -15 -23 0 
-7 -15 -27 0 
-7 -15 -31 0 
-7 -19 -3 0 
-7 -19 -11 0 
-7 -19 -15 0 
-7 -19 -23 0 
-7 -19 -27 0 
-7 -19 -31 0 
-7 -23 -3 0 
-7 -23 -11 0 
-7 -23 -15 0 
-7 -23 -19 0 
-7 -23 -27 0 
-7 -23 -31 0 
-7 -27 -3 0 
-7 -27 -11 0 
-7 -27 -15 0 
-7 -27 -19 0 
-7 -27 -23 0 
-7 -27 -31 0 
-7 -31 -3 0 
-7 -31 -11 0 
-7 -31 -15 0 
-7 -31 -19 0 
-7 -31 -23 0 
-7 -31 -27 0 
-11 -15 -3 0 
-11 -15 -7 0 
-11 -15 -19 0 
-11 -15 -23 0 
-11 -15 -27 0 
-11 -15 -31 0 
-11 -19 -3 0 
-11 -19 -7 0 
-11 -19 -15 0 
-11 -19 -23 0 
-11 -19 -27 0 
-11 -19 -31 0 
-11 -23 -3 0 
-11 -23 -7 0 
-11 -23 -15 0 
-11 -23 -19 0 
-11 -23 -27 0 
-11 -23 -31 0 
-11 -27 -3 0 
-11 -27 -7 0 
-11 -27 -15 0 
-11 -27 -19 0 
-11 -27 -23 0 
-11 -27 -31 0 
-11 -31 -3 0 
-11 -31 -7 0 
-11 -31 -15 0 
-11 -31 -19 0 
-11 -31 -23 0 
-11 -31 -27 0 
-15 -19 -3 0 
-15 -19 -7 0 
-15 -19 -11 0 
-15 -19 -23 0 
-15 -19 -27 0 
-15 -19 -31 0 
-15 -23 -3 0 
-15 -23 -7 0 
-15 -23 -11 0 
-15 -23 -19 0 
-15 -23 -27 0 
-15 -23 -31 0 
-15 -27 -3 0 
-15 -27 -7 0 
-15 -27 -11 0 
-15 -27 -19 0 
-15 -27 -23 0 
-15 -27 -31 0 
-15 -31 -3 0 
-15 -31 -7 0 
-15 -31 -11 0 
-15 -31 -19 0 
-15 -31 -23 0 
-15 -31 -27 0 
-19 -23 -3 0 
-19 -23 -7 0 
-19 -23 -11 0 
-19 -23 -15 0 
-19 -23 -27 0 
-19 -23 -31 0 
-19 -27 -3 0 
-19 -27 -7 0 
-19 -27 -11 0 
-19 -27 -15 0 
-19 -27 -23 0 
-19 -27 -31 0 
-19 -31 -3 0 
-19 -31 -7 0 
-19 -31 -11 0 
-19 -31 -15 0 
-19 -31 -23 0 
-19 -31 -27 0 
-23 -27 -3 0 
-23 -27 -7 0 
-23 -27 -11 0 
-23 -27 -15 0 
-23 -27 -19 0 
-23 -27 -31 0 
-23 -31 -3 0 
-23 -31 -7 0 
-23 -31 -11 0 
-23 -31 -15 0 
-23 -31 -19 0 
-23 -31 -27 0 
-27 -31 -3 0 
-27 -31 -7 0 
-27 -31 -11 0 
-27 -31 -15 0 
-27 -31 -19 0 
-27 -31 -23 0 
8 12 16 20 24 28 32 0 
4 12 16 20 24 28 32 0 
4 8 16 20 24 28 32 0 
4 8 12 20 24 28 32 0 
4 8 12 16 24 28 32 0 
4 8 12 16 20 28 32 0 
4 8 12 16 20 24 32 0 
4 8 12 16 20 24 28 0 
-4 -8 -12 0 
-4 -8 -16 0 
-4 -8 -20 0 
-4 -8 -24 0 
-4 -8 -28 0 
-4 -8 -32 0 
-4 -12 -8 0 
-4 -12 -16 0 
-4 -12 -20 0 
-4 -12 -24 0 
-4 -12 -28 0 
-4 -12 -32 0 
-4 -16 -8 0 
-4 -16 -12 0 
-4 -16 -20 0 
-4 -16 -24 0 
-4 -16 -28 0 
-4 -16 -32 0 
-4 -20 -8 0 
-4 -20 -12 0 
-4 -20 -16 0 
-4 -20 -24 0 
-4 -20 -28 0 
-4 -20 -32 0 
-4 -24 -8 0 
-4 -24 -12 0 
-4 -24 -16 0 
-4 -24 -20 0 
-4 -24 -28 0 
-4 -24 -32 0 
-4 -28 -8 0 
-4 -28 -12 0 
-4 -28 -16 0 
-4 -28 -20 0 
-4 -28 -24 0 
-4 -28 -32 0 
-4 -32 -8 0 
-4 -32 -12 0 
-4 -32 -16 0 
-4 -32 -20 0 
-4 -32 -24 0 
-4 -32 -28 0 
-8 -12 -4 0 
-8 -12 -16 0 
-8 -12 -20 0 
-8 -12 -24 0 
-8 -12 -28 0 
-8 -12 -32 0 
-8 -16 -4 0 
-8 -16 -12 0 
-8 -16 -20 0 
-8 -16 -24 0 
-8 -16 -28 0 
-8 -16 -32 0 
-8 -20 -4 0 
-8 -20 -12 0 
-8 -20 -16 0 
-8 -20 -24 0 
-8 -20 -28 0 
-8 -20 -32 0 
-8 -24 -4 0 
-8 -24 -12 0 
-8 -24 -16 0 
-8 -24 -20 0 
-8 -24 -28 0 
-8 -24 -32 0 
-8 -28 -4 0 
-8 -28 -12 0 
-8 -28 -16 0 
-8 -28 -20 0 
-8 -28 -24 0 
-8 -28 -32 0 
-8 -32 -4 0 
-8 -32 -12 0 
-8 -32 -16 0 
-8 -32 -20 0 
-8 -32 -24 0 
-8 -32 -28 0 
-12 -16 -4 0 
-12 -16 -8 0 
-12 -16 -20 0 
-12 -16 -24 0 
-12 -16 -28 0 
-12 -16 -32 0 
-12 -20 -4 0 
-12 -20 -8 0 
-12 -20 -16 0 
-12 -20 -24 0 
-12 -20 -28 0 
-12 -20 -32 0 
-12 -24 -4 0 
-12 -24 -8 0 
-12 -24 -16 0 
-12 -24 -20 0 
-12 -24 -28 0 
-12 -24 -32 0 
-12 -28 -4 0 
-12 -28 -8 0 
-12 -28 -16 0 
-12 -28 -20 0 
-12 -28 -24 0 
-12 -28 -32 0 
-12 -32 -4 0 
-12 -32 -8 0 
-12 -32 -16 0 
-12 -32 -20 0 
-12 -32 -24 0 
-12 -32 -28 0 
-16 -20 -4 0 
-16 -20 -8 0 
-16 -20 -12 0 
-16 -20 -24 0 
-16 -20 -28 0 
-16 -20 -32 0 
-16 -24 -4 0 
-16 -24 -8 0 
-16 -24 -12 0 
-16 -24 -20 0 
-16 -24 -28 0 
-16 -24 -32 0 
-16 -28 -4 0 
-16 -28 -8 0 
-16 -28 -12 0 
-16 -28 -20 0 
-16 -28 -24 0 
-16 -28 -32 0 
-16 -32 -4 0 
-16 -32 -8 0 
-16 -32 -12 0 
-16 -32 -20 0 
-16 -32 -24 0 
-16 -32 -28 0 
-20 -24 -4 0 
-20 -24 -8 0 
-20 -24 -12 0 
-20 -24 -16 0 
-20 -24 -28 0 
-20 -24 -32 0 
-20 -28 -4 0 
-20 -28 -8 0 
-20 -28 -12 0 
-20 -28 -16 0 
-20 -28 -24 0 
-20 -28 -32 0 
-20 -32 -4 0 
-20 -32 -8 0 
-20 -32 -12 0 
-20 -32 -16 0 
-20 -32 -24 0 
-20 -32 -28 0 
-24 -28 -4 0 
-24 -28 -8 0 
-24 -28 -12 0 
-24 -28 -16 0 
-24 -28 -20 0 
-24 -28 -32 0 
-24 -32 -4 0 
-24 -32 -8 0 
-24 -32 -12 0 
-24 -32 -16 0 
-24 -32 -20 0 
-24 -32 -28 0 
-28 -32 -4 0 
-28 -32 -8 0 
-28 -32 -12 0 
-28 -32 -16 0 
-28 -32 -20 0 
-28 -32 -24 0 
9 13 17 21 25 29 0 
5 13 17 21 25 29 0 
5 9 17 21 25 29 0 
5 9 13 21 25 29 0 
5 9 13 17 25 29 0 
5 9 13 17 21 29 0 
5 9 13 17 21 25 0 
-1 5 0 
-2 10 0 
-3 15 0 
-4 20 0 
-5 1 9 0 
-6 14 0 
-7 19 0 
-8 24 0 
-9 5 13 0 
-10 2 18 0 
-11 23 0 
-12 28 0 
-13 9 17 0 
-14 6 22 0 
-15 3 27 0 
-16 32 0 
-17 13 21 0 
-18 10 26 0 
-19 7 31 0 
-20 4 0 
-21 17 25 0 
-22 14 30 0 
-23 11 0 
-24 8 0 
-25 21 29 0 
-26 18 0 
-27 15 0 
-28 12 0 
-29 25 0 
-30 22 0 
-31 19 0 
-32 16 0 